MLT07
Position Depot: Center
Horizon for Depot: Large
Position of customers: Mixt
Distribution of the demand: Medium
Width of time windows: Tight
Distribution of the service: Small

VEHICLE 
NUMBER 	 CAPACITY 
 6 	 	 132 
 
CUSTOMER
CUST NO. 	 XCOORD.  	 YCOORD. 	 DEMAND 	 READY TIME 	 DUE DATE 	 SERVICE TIME 
 0 	 	 500 	 	 500 	 	 0 	 	 0 	 	 3803 	 	 0 
  1 	 	 471 	 	 793 	 	 2 	 	 1814 	 	 2012 	 	 65 
  2 	 	 804 	 	 350 	 	 93 	 	 2696 	 	 2834 	 	 97 
  3 	 	 613 	 	 168 	 	 4 	 	 3537 	 	 3622 	 	 92 
  4 	 	 695 	 	 864 	 	 4 	 	 971 	 	 1040 	 	 61 
  5 	 	 386 	 	 426 	 	 6 	 	 922 	 	 1012 	 	 93 
  6 	 	 645 	 	 661 	 	 1 	 	 411 	 	 579 	 	 66 
  7 	 	 565 	 	 130 	 	 10 	 	 1285 	 	 1428 	 	 68 
  8 	 	 848 	 	 428 	 	 4 	 	 309 	 	 457 	 	 96 
  9 	 	 395 	 	 359 	 	 73 	 	 131 	 	 283 	 	 64 
  10 	 	 382 	 	 505 	 	 4 	 	 347 	 	 397 	 	 84 
  11 	 	 665 	 	 917 	 	 2 	 	 2634 	 	 2800 	 	 60 
  12 	 	 397 	 	 396 	 	 1 	 	 2395 	 	 2450 	 	 81 
  13 	 	 628 	 	 26 	 	 10 	 	 836 	 	 894 	 	 93 
  14 	 	 607 	 	 696 	 	 3 	 	 3475 	 	 3595 	 	 54 
  15 	 	 430 	 	 791 	 	 2 	 	 1574 	 	 1746 	 	 74 
  16 	 	 977 	 	 299 	 	 9 	 	 2787 	 	 2862 	 	 95 
  17 	 	 654 	 	 324 	 	 4 	 	 1085 	 	 1230 	 	 58 
  18 	 	 634 	 	 135 	 	 9 	 	 381 	 	 440 	 	 68 
  19 	 	 378 	 	 339 	 	 64 	 	 2001 	 	 2187 	 	 84 
  20 	 	 500 	 	 781 	 	 86 	 	 2611 	 	 2742 	 	 81 
  21 	 	 656 	 	 710 	 	 8 	 	 3647 	 	 3803 	 	 75 
  22 	 	 488 	 	 848 	 	 97 	 	 3425 	 	 3588 	 	 50 
  23 	 	 539 	 	 713 	 	 9 	 	 3264 	 	 3463 	 	 57 
  24 	 	 634 	 	 669 	 	 68 	 	 2889 	 	 2989 	 	 58 
  25 	 	 663 	 	 696 	 	 2 	 	 901 	 	 1039 	 	 91 
  26 	 	 568 	 	 281 	 	 1 	 	 1904 	 	 2091 	 	 85 
  27 	 	 744 	 	 877 	 	 7 	 	 2315 	 	 2373 	 	 87 
  28 	 	 537 	 	 477 	 	 70 	 	 3043 	 	 3194 	 	 83 
  29 	 	 563 	 	 443 	 	 3 	 	 2336 	 	 2391 	 	 94 
  30 	 	 255 	 	 241 	 	 4 	 	 2800 	 	 2904 	 	 71 
  31 	 	 863 	 	 599 	 	 3 	 	 2033 	 	 2198 	 	 88 
  32 	 	 558 	 	 56 	 	 6 	 	 2619 	 	 2713 	 	 72 
  33 	 	 607 	 	 145 	 	 6 	 	 2637 	 	 2788 	 	 53 
  34 	 	 169 	 	 144 	 	 67 	 	 360 	 	 534 	 	 52 
  35 	 	 705 	 	 966 	 	 1 	 	 3149 	 	 3210 	 	 78 
  36 	 	 63 	 	 511 	 	 8 	 	 529 	 	 610 	 	 93 
  37 	 	 238 	 	 971 	 	 4 	 	 2900 	 	 3076 	 	 78 
  38 	 	 121 	 	 544 	 	 1 	 	 3062 	 	 3134 	 	 72 
  39 	 	 843 	 	 240 	 	 7 	 	 2117 	 	 2194 	 	 64 
  40 	 	 575 	 	 911 	 	 5 	 	 409 	 	 459 	 	 78 
  41 	 	 783 	 	 410 	 	 1 	 	 1906 	 	 2098 	 	 52 
  42 	 	 576 	 	 877 	 	 8 	 	 3550 	 	 3676 	 	 64 
  43 	 	 341 	 	 36 	 	 3 	 	 2784 	 	 2892 	 	 59 
  44 	 	 156 	 	 969 	 	 7 	 	 2174 	 	 2322 	 	 70 
  45 	 	 324 	 	 710 	 	 1 	 	 2617 	 	 2775 	 	 72 
  46 	 	 926 	 	 379 	 	 5 	 	 722 	 	 860 	 	 76 
  47 	 	 365 	 	 312 	 	 3 	 	 3124 	 	 3281 	 	 70 
  48 	 	 217 	 	 652 	 	 8 	 	 1475 	 	 1624 	 	 74 
  49 	 	 185 	 	 882 	 	 9 	 	 880 	 	 1048 	 	 54 
  50 	 	 756 	 	 45 	 	 7 	 	 3402 	 	 3531 	 	 65 
 